c description: Perfect Matching Principle on 
c generator: CNFgen (0.9.0)
c copyright: (C) 2012-2020 Massimo Lauria <massimo.lauria@uniroma1.it>
c url: https://massimolauria.net/cnfgen
c
p cnf 60 243
-1 -2 0
-1 -3 0
-1 -4 0
-1 -5 0
-1 -6 0
-2 -3 0
-2 -4 0
-2 -5 0
-2 -6 0
-3 -4 0
-3 -5 0
-3 -6 0
-4 -5 0
-4 -6 0
-5 -6 0
1 2 3 4 5 6 0
-7 -8 0
-7 -9 0
-7 -10 0
-7 -11 0
-8 -9 0
-8 -10 0
-8 -11 0
-9 -10 0
-9 -11 0
-10 -11 0
7 8 9 10 11 0
-12 -13 0
-12 -14 0
-12 -15 0
-13 -14 0
-13 -15 0
-14 -15 0
12 13 14 15 0
-16 -17 0
-16 -18 0
-17 -18 0
16 17 18 0
-7 -19 0
-7 -20 0
-7 -21 0
-7 -22 0
-19 -20 0
-19 -21 0
-19 -22 0
-20 -21 0
-20 -22 0
-21 -22 0
7 19 20 21 22 0
-1 -23 0
-1 -24 0
-1 -25 0
-23 -24 0
-23 -25 0
-24 -25 0
1 23 24 25 0
-26 -27 0
-26 -28 0
-26 -29 0
-26 -30 0
-27 -28 0
-27 -29 0
-27 -30 0
-28 -29 0
-28 -30 0
-29 -30 0
26 27 28 29 30 0
-2 -31 0
2 31 0
-3 -32 0
3 32 0
-8 -32 0
-8 -33 0
-8 -34 0
-8 -35 0
-8 -36 0
-32 -33 0
-32 -34 0
-32 -35 0
-32 -36 0
-33 -34 0
-33 -35 0
-33 -36 0
-34 -35 0
-34 -36 0
-35 -36 0
8 32 33 34 35 36 0
37 0
-26 -38 0
-26 -39 0
-26 -40 0
-38 -39 0
-38 -40 0
-39 -40 0
26 38 39 40 0
-4 -9 0
-4 -41 0
-4 -42 0
-9 -41 0
-9 -42 0
-41 -42 0
4 9 41 42 0
-10 -23 0
-10 -27 0
-10 -43 0
-23 -27 0
-23 -43 0
-27 -43 0
10 23 27 43 0
-12 -19 0
-12 -38 0
-12 -44 0
-12 -45 0
-19 -38 0
-19 -44 0
-19 -45 0
-38 -44 0
-38 -45 0
-44 -45 0
12 19 38 44 45 0
-13 -46 0
-13 -47 0
-13 -48 0
-13 -49 0
-46 -47 0
-46 -48 0
-46 -49 0
-47 -48 0
-47 -49 0
-48 -49 0
13 46 47 48 49 0
-16 -31 0
-16 -33 0
-16 -44 0
-16 -50 0
-31 -33 0
-31 -44 0
-31 -50 0
-33 -44 0
-33 -50 0
-44 -50 0
16 31 33 44 50 0
-24 -51 0
24 51 0
-20 -34 0
20 34 0
-28 -35 0
-28 -46 0
-28 -51 0
-28 -52 0
-35 -46 0
-35 -51 0
-35 -52 0
-46 -51 0
-46 -52 0
-51 -52 0
28 35 46 51 52 0
-21 -37 0
-21 -39 0
-21 -41 0
-21 -53 0
-37 -39 0
-37 -41 0
-37 -53 0
-39 -41 0
-39 -53 0
-41 -53 0
21 37 39 41 53 0
0
-40 -53 0
-40 -54 0
-40 -55 0
-40 -56 0
-40 -57 0
-53 -54 0
-53 -55 0
-53 -56 0
-53 -57 0
-54 -55 0
-54 -56 0
-54 -57 0
-55 -56 0
-55 -57 0
-56 -57 0
40 53 54 55 56 57 0
-22 -29 0
-22 -42 0
-22 -54 0
-22 -58 0
-29 -42 0
-29 -54 0
-29 -58 0
-42 -54 0
-42 -58 0
-54 -58 0
22 29 42 54 58 0
-25 -30 0
-25 -43 0
-25 -59 0
-30 -43 0
-30 -59 0
-43 -59 0
25 30 43 59 0
-5 -47 0
-5 -55 0
-47 -55 0
5 47 55 0
-14 -17 0
-14 -36 0
-14 -45 0
-14 -52 0
-17 -36 0
-17 -45 0
-17 -52 0
-36 -45 0
-36 -52 0
-45 -52 0
14 17 36 45 52 0
-11 -18 0
-11 -48 0
-11 -56 0
-11 -60 0
-18 -48 0
-18 -56 0
-18 -60 0
-48 -56 0
-48 -60 0
-56 -60 0
11 18 48 56 60 0
-6 -49 0
-6 -59 0
-6 -60 0
-49 -59 0
-49 -60 0
-59 -60 0
6 49 59 60 0
-15 -50 0
-15 -57 0
-15 -58 0
-50 -57 0
-50 -58 0
-57 -58 0
15 50 57 58 0